% Logging successfully configured
%%%mzn-stat: initTime=0.218112974
%%%mzn-stat: objective=924
%%%mzn-stat: nodes=8548
%%%mzn-stat: restarts=0
%%%mzn-stat: peakDepth=624
%%%mzn-stat: solveTime=0.527556489
%%%mzn-stat: variables=1153
%%%mzn-stat: propagators=2067
%%%mzn-stat: failures=3561
%%%mzn-stat: propagations=1159742
%%%mzn-stat: nogoods=3561
%%%mzn-stat: numAtomicConstraintsPropagated=0
%%%mzn-stat: circuitNumber1226PropagationsThatFoundConflict=3011
%%%mzn-stat: circuitNumber1226TotalFixedEdgesAtConflict=130527
%%%mzn-stat: circuitNumber1226NumberOfConflicts=3011
%%%mzn-stat: circuitNumber1226PropagationsThatPruned=1305
%%%mzn-stat: circuitNumber1226PropagationsTotal=11203
%%%mzn-stat: AverageConflictSize=19.35888795282224
%%%mzn-stat: NumUnitNogoodsLearned=0
%%%mzn-stat: AverageLearnedNogoodLength=21.922212861555742
%%%mzn-stat: AverageBacktrackAmount=0
%%%mzn-stat: AverageLbd=17.441168211176635
%%%mzn-stat: 2AutonomousSearchNumBackupCalled=587
%%%mzn-stat: 2AutonomousSearchNumPredicatesRemoved=0
%%%mzn-stat: 2AutonomousSearchNumCalls=588
%%%mzn-stat: 2AutonomousSearchNumPredicatesAdded=1079
%%%mzn-stat: 2AutonomousSearchAverageSizeOfHeap=1.8350340136054422
%%%mzn-stat: 2AutonomousSearchNumAssignedPredicatesEncountered=1079
%%%mzn-stat-end
maxleg = 924;
succ = array1d(1..50,[11, 9, 6, 5, 10, 12, 8, 13, 4, 15, 16, 1, 2, 7, 17, 18, 20, 25, 3, 21, 24, 19, 14, 28, 34, 27, 29, 32, 48, 26, 42, 45, 38, 35, 37, 33, 39, 40, 44, 49, 30, 22, 50, 46, 36, 41, 23, 47, 43, 31]);
% time elapsed: 13.43 s
----------
